p cnf 7230 15
37 -2037 0
1774 -2037 0
-42 -1770 2038 0
-37 -1774 2036 0
42 -2041 0
2035 -2037 0
-2040 2041 0
-2039 2040 0
-2038 2039 0
-2036 2037 0
1770 -2041 0
2034 -2035 0
1746 -2043 0
47 -2043 0
-2034 2035 0
